# Solution for model simple
# Objective value = 0
x[0,0,0] 0
x[0,0,1] 0
x[0,0,2] 1
x[0,0,3] 0
x[0,1,0] 0
x[0,1,1] 0
x[0,1,2] 0
x[0,1,3] 0
x[0,2,0] 0
x[0,2,1] 0
x[0,2,2] 0
x[0,2,3] 0
x[0,3,0] 0
x[0,3,1] 0
x[0,3,2] 0
x[0,3,3] 0
x[0,4,0] 0
x[0,4,1] 0
x[0,4,2] 0
x[0,4,3] 0
x[0,5,0] 0
x[0,5,1] 0
x[0,5,2] 0
x[0,5,3] 0
x[0,6,0] 0
x[0,6,1] 0
x[0,6,2] 0
x[0,6,3] 0
x[0,7,0] 0
x[0,7,1] 0
x[0,7,2] 0
x[0,7,3] 0
x[1,0,0] 0
x[1,0,1] 0
x[1,0,2] 0
x[1,0,3] 0
x[1,1,0] 0
x[1,1,1] 0
x[1,1,2] 1
x[1,1,3] 0
x[1,2,0] 0
x[1,2,1] 0
x[1,2,2] 0
x[1,2,3] 0
x[1,3,0] 0
x[1,3,1] 0
x[1,3,2] 0
x[1,3,3] 0
x[1,4,0] 0
x[1,4,1] 0
x[1,4,2] 0
x[1,4,3] 0
x[1,5,0] 0
x[1,5,1] 0
x[1,5,2] 0
x[1,5,3] 0
x[1,6,0] 0
x[1,6,1] 0
x[1,6,2] 0
x[1,6,3] 0
x[1,7,0] 0
x[1,7,1] 0
x[1,7,2] 0
x[1,7,3] 0
x[2,0,0] 0
x[2,0,1] 0
x[2,0,2] 0
x[2,0,3] 0
x[2,1,0] 0
x[2,1,1] 0
x[2,1,2] 0
x[2,1,3] 1
x[2,2,0] 0
x[2,2,1] 0
x[2,2,2] 0
x[2,2,3] 0
x[2,3,0] 0
x[2,3,1] 0
x[2,3,2] 0
x[2,3,3] 0
x[2,4,0] 0
x[2,4,1] 0
x[2,4,2] 0
x[2,4,3] 0
x[2,5,0] 0
x[2,5,1] 0
x[2,5,2] 0
x[2,5,3] 0
x[2,6,0] 0
x[2,6,1] 0
x[2,6,2] 0
x[2,6,3] 0
x[2,7,0] 0
x[2,7,1] 0
x[2,7,2] 0
x[2,7,3] 0
x[3,0,0] 0
x[3,0,1] 0
x[3,0,2] 0
x[3,0,3] 0
x[3,1,0] 0
x[3,1,1] 0
x[3,1,2] 0
x[3,1,3] 0
x[3,2,0] 0
x[3,2,1] 0
x[3,2,2] 0
x[3,2,3] 1
x[3,3,0] 0
x[3,3,1] 0
x[3,3,2] 0
x[3,3,3] 0
x[3,4,0] 0
x[3,4,1] 0
x[3,4,2] 0
x[3,4,3] 0
x[3,5,0] 0
x[3,5,1] 0
x[3,5,2] 0
x[3,5,3] 0
x[3,6,0] 0
x[3,6,1] 0
x[3,6,2] 0
x[3,6,3] 0
x[3,7,0] 0
x[3,7,1] 0
x[3,7,2] 0
x[3,7,3] 0
x[4,0,0] 1
x[4,0,1] 0
x[4,0,2] 0
x[4,0,3] 0
x[4,1,0] 0
x[4,1,1] 0
x[4,1,2] 0
x[4,1,3] 0
x[4,2,0] 0
x[4,2,1] 0
x[4,2,2] 0
x[4,2,3] 0
x[4,3,0] 0
x[4,3,1] 0
x[4,3,2] 0
x[4,3,3] 0
x[4,4,0] 0
x[4,4,1] 0
x[4,4,2] 0
x[4,4,3] 0
x[4,5,0] 0
x[4,5,1] 0
x[4,5,2] 0
x[4,5,3] 0
x[4,6,0] 0
x[4,6,1] 0
x[4,6,2] 0
x[4,6,3] 0
x[4,7,0] 0
x[4,7,1] 0
x[4,7,2] 0
x[4,7,3] 0
x[5,0,0] 0
x[5,0,1] 1
x[5,0,2] 0
x[5,0,3] 0
x[5,1,0] 0
x[5,1,1] 0
x[5,1,2] 0
x[5,1,3] 0
x[5,2,0] 0
x[5,2,1] 0
x[5,2,2] 0
x[5,2,3] 0
x[5,3,0] 0
x[5,3,1] 0
x[5,3,2] 0
x[5,3,3] 0
x[5,4,0] 0
x[5,4,1] 0
x[5,4,2] 0
x[5,4,3] 0
x[5,5,0] 0
x[5,5,1] 0
x[5,5,2] 0
x[5,5,3] 0
x[5,6,0] 0
x[5,6,1] 0
x[5,6,2] 0
x[5,6,3] 0
x[5,7,0] 0
x[5,7,1] 0
x[5,7,2] 0
x[5,7,3] 0
x[6,0,0] 0
x[6,0,1] 0
x[6,0,2] 0
x[6,0,3] 0
x[6,1,0] 0
x[6,1,1] 0
x[6,1,2] 0
x[6,1,3] 0
x[6,2,0] 1
x[6,2,1] 0
x[6,2,2] 0
x[6,2,3] 0
x[6,3,0] 0
x[6,3,1] 0
x[6,3,2] 0
x[6,3,3] 0
x[6,4,0] 0
x[6,4,1] 0
x[6,4,2] 0
x[6,4,3] 0
x[6,5,0] 0
x[6,5,1] 0
x[6,5,2] 0
x[6,5,3] 0
x[6,6,0] 0
x[6,6,1] 0
x[6,6,2] 0
x[6,6,3] 0
x[6,7,0] 0
x[6,7,1] 0
x[6,7,2] 0
x[6,7,3] 0
x[7,0,0] 0
x[7,0,1] 0
x[7,0,2] 0
x[7,0,3] 1
x[7,1,0] 0
x[7,1,1] 0
x[7,1,2] 0
x[7,1,3] 0
x[7,2,0] 0
x[7,2,1] 0
x[7,2,2] 0
x[7,2,3] 0
x[7,3,0] 0
x[7,3,1] 0
x[7,3,2] 0
x[7,3,3] 0
x[7,4,0] 0
x[7,4,1] 0
x[7,4,2] 0
x[7,4,3] 0
x[7,5,0] 0
x[7,5,1] 0
x[7,5,2] 0
x[7,5,3] 0
x[7,6,0] 0
x[7,6,1] 0
x[7,6,2] 0
x[7,6,3] 0
x[7,7,0] 0
x[7,7,1] 0
x[7,7,2] 0
x[7,7,3] 0
x[8,0,0] 0
x[8,0,1] 0
x[8,0,2] 0
x[8,0,3] 0
x[8,1,0] 0
x[8,1,1] 0
x[8,1,2] 0
x[8,1,3] 0
x[8,2,0] 0
x[8,2,1] 0
x[8,2,2] 0
x[8,2,3] 0
x[8,3,0] 0
x[8,3,1] 0
x[8,3,2] 0
x[8,3,3] 0
x[8,4,0] 0
x[8,4,1] 0
x[8,4,2] 0
x[8,4,3] 0
x[8,5,0] 0
x[8,5,1] 0
x[8,5,2] 0
x[8,5,3] 1
x[8,6,0] 0
x[8,6,1] 0
x[8,6,2] 0
x[8,6,3] 0
x[8,7,0] 0
x[8,7,1] 0
x[8,7,2] 0
x[8,7,3] 0
x[9,0,0] 0
x[9,0,1] 0
x[9,0,2] 0
x[9,0,3] 0
x[9,1,0] 0
x[9,1,1] 0
x[9,1,2] 0
x[9,1,3] 0
x[9,2,0] 0
x[9,2,1] 0
x[9,2,2] 0
x[9,2,3] 0
x[9,3,0] 0
x[9,3,1] 0
x[9,3,2] 0
x[9,3,3] 0
x[9,4,0] 0
x[9,4,1] 0
x[9,4,2] 0
x[9,4,3] 0
x[9,5,0] 1
x[9,5,1] 0
x[9,5,2] 0
x[9,5,3] 0
x[9,6,0] 0
x[9,6,1] 0
x[9,6,2] 0
x[9,6,3] 0
x[9,7,0] 0
x[9,7,1] 0
x[9,7,2] 0
x[9,7,3] 0
x[10,0,0] 0
x[10,0,1] 0
x[10,0,2] 0
x[10,0,3] 0
x[10,1,0] 0
x[10,1,1] 0
x[10,1,2] 0
x[10,1,3] 0
x[10,2,0] 0
x[10,2,1] 0
x[10,2,2] 0
x[10,2,3] 0
x[10,3,0] 0
x[10,3,1] 0
x[10,3,2] 0
x[10,3,3] 0
x[10,4,0] 0
x[10,4,1] 1
x[10,4,2] 0
x[10,4,3] 0
x[10,5,0] 0
x[10,5,1] 0
x[10,5,2] 0
x[10,5,3] 0
x[10,6,0] 0
x[10,6,1] 0
x[10,6,2] 0
x[10,6,3] 0
x[10,7,0] 0
x[10,7,1] 0
x[10,7,2] 0
x[10,7,3] 0
x[11,0,0] 0
x[11,0,1] 0
x[11,0,2] 0
x[11,0,3] 0
x[11,1,0] 0
x[11,1,1] 0
x[11,1,2] 0
x[11,1,3] 0
x[11,2,0] 0
x[11,2,1] 0
x[11,2,2] 0
x[11,2,3] 0
x[11,3,0] 0
x[11,3,1] 0
x[11,3,2] 0
x[11,3,3] 0
x[11,4,0] 1
x[11,4,1] 0
x[11,4,2] 0
x[11,4,3] 0
x[11,5,0] 0
x[11,5,1] 0
x[11,5,2] 0
x[11,5,3] 0
x[11,6,0] 0
x[11,6,1] 0
x[11,6,2] 0
x[11,6,3] 0
x[11,7,0] 0
x[11,7,1] 0
x[11,7,2] 0
x[11,7,3] 0
x[12,0,0] 0
x[12,0,1] 0
x[12,0,2] 0
x[12,0,3] 0
x[12,1,0] 0
x[12,1,1] 0
x[12,1,2] 0
x[12,1,3] 0
x[12,2,0] 0
x[12,2,1] 0
x[12,2,2] 0
x[12,2,3] 0
x[12,3,0] 0
x[12,3,1] 0
x[12,3,2] 1
x[12,3,3] 0
x[12,4,0] 0
x[12,4,1] 0
x[12,4,2] 0
x[12,4,3] 0
x[12,5,0] 0
x[12,5,1] 0
x[12,5,2] 0
x[12,5,3] 0
x[12,6,0] 0
x[12,6,1] 0
x[12,6,2] 0
x[12,6,3] 0
x[12,7,0] 0
x[12,7,1] 0
x[12,7,2] 0
x[12,7,3] 0
x[13,0,0] 0
x[13,0,1] 0
x[13,0,2] 0
x[13,0,3] 0
x[13,1,0] 0
x[13,1,1] 0
x[13,1,2] 0
x[13,1,3] 0
x[13,2,0] 0
x[13,2,1] 0
x[13,2,2] 0
x[13,2,3] 0
x[13,3,0] 0
x[13,3,1] 1
x[13,3,2] 0
x[13,3,3] 0
x[13,4,0] 0
x[13,4,1] 0
x[13,4,2] 0
x[13,4,3] 0
x[13,5,0] 0
x[13,5,1] 0
x[13,5,2] 0
x[13,5,3] 0
x[13,6,0] 0
x[13,6,1] 0
x[13,6,2] 0
x[13,6,3] 0
x[13,7,0] 0
x[13,7,1] 0
x[13,7,2] 0
x[13,7,3] 0
x[14,0,0] 0
x[14,0,1] 0
x[14,0,2] 0
x[14,0,3] 0
x[14,1,0] 0
x[14,1,1] 0
x[14,1,2] 0
x[14,1,3] 0
x[14,2,0] 0
x[14,2,1] 0
x[14,2,2] 0
x[14,2,3] 0
x[14,3,0] 1
x[14,3,1] 0
x[14,3,2] 0
x[14,3,3] 0
x[14,4,0] 0
x[14,4,1] 0
x[14,4,2] 0
x[14,4,3] 0
x[14,5,0] 0
x[14,5,1] 0
x[14,5,2] 0
x[14,5,3] 0
x[14,6,0] 0
x[14,6,1] 0
x[14,6,2] 0
x[14,6,3] 0
x[14,7,0] 0
x[14,7,1] 0
x[14,7,2] 0
x[14,7,3] 0
x[15,0,0] 0
x[15,0,1] 0
x[15,0,2] 0
x[15,0,3] 0
x[15,1,0] 0
x[15,1,1] 0
x[15,1,2] 0
x[15,1,3] 0
x[15,2,0] 0
x[15,2,1] 0
x[15,2,2] 0
x[15,2,3] 0
x[15,3,0] 0
x[15,3,1] 0
x[15,3,2] 0
x[15,3,3] 0
x[15,4,0] 0
x[15,4,1] 0
x[15,4,2] 0
x[15,4,3] 1
x[15,5,0] 0
x[15,5,1] 0
x[15,5,2] 0
x[15,5,3] 0
x[15,6,0] 0
x[15,6,1] 0
x[15,6,2] 0
x[15,6,3] 0
x[15,7,0] 0
x[15,7,1] 0
x[15,7,2] 0
x[15,7,3] 0
x[16,0,0] 0
x[16,0,1] 0
x[16,0,2] 0
x[16,0,3] 0
x[16,1,0] 1
x[16,1,1] 0
x[16,1,2] 0
x[16,1,3] 0
x[16,2,0] 0
x[16,2,1] 0
x[16,2,2] 0
x[16,2,3] 0
x[16,3,0] 0
x[16,3,1] 0
x[16,3,2] 0
x[16,3,3] 0
x[16,4,0] 0
x[16,4,1] 0
x[16,4,2] 0
x[16,4,3] 0
x[16,5,0] 0
x[16,5,1] 0
x[16,5,2] 0
x[16,5,3] 0
x[16,6,0] 0
x[16,6,1] 0
x[16,6,2] 0
x[16,6,3] 0
x[16,7,0] 0
x[16,7,1] 0
x[16,7,2] 0
x[16,7,3] 0
x[17,0,0] 0
x[17,0,1] 0
x[17,0,2] 0
x[17,0,3] 0
x[17,1,0] 0
x[17,1,1] 0
x[17,1,2] 0
x[17,1,3] 0
x[17,2,0] 0
x[17,2,1] 0
x[17,2,2] 1
x[17,2,3] 0
x[17,3,0] 0
x[17,3,1] 0
x[17,3,2] 0
x[17,3,3] 0
x[17,4,0] 0
x[17,4,1] 0
x[17,4,2] 0
x[17,4,3] 0
x[17,5,0] 0
x[17,5,1] 0
x[17,5,2] 0
x[17,5,3] 0
x[17,6,0] 0
x[17,6,1] 0
x[17,6,2] 0
x[17,6,3] 0
x[17,7,0] 0
x[17,7,1] 0
x[17,7,2] 0
x[17,7,3] 0
x[18,0,0] 0
x[18,0,1] 0
x[18,0,2] 0
x[18,0,3] 0
x[18,1,0] 0
x[18,1,1] 1
x[18,1,2] 0
x[18,1,3] 0
x[18,2,0] 0
x[18,2,1] 0
x[18,2,2] 0
x[18,2,3] 0
x[18,3,0] 0
x[18,3,1] 0
x[18,3,2] 0
x[18,3,3] 0
x[18,4,0] 0
x[18,4,1] 0
x[18,4,2] 0
x[18,4,3] 0
x[18,5,0] 0
x[18,5,1] 0
x[18,5,2] 0
x[18,5,3] 0
x[18,6,0] 0
x[18,6,1] 0
x[18,6,2] 0
x[18,6,3] 0
x[18,7,0] 0
x[18,7,1] 0
x[18,7,2] 0
x[18,7,3] 0
x[19,0,0] 0
x[19,0,1] 0
x[19,0,2] 0
x[19,0,3] 0
x[19,1,0] 0
x[19,1,1] 0
x[19,1,2] 0
x[19,1,3] 0
x[19,2,0] 0
x[19,2,1] 1
x[19,2,2] 0
x[19,2,3] 0
x[19,3,0] 0
x[19,3,1] 0
x[19,3,2] 0
x[19,3,3] 0
x[19,4,0] 0
x[19,4,1] 0
x[19,4,2] 0
x[19,4,3] 0
x[19,5,0] 0
x[19,5,1] 0
x[19,5,2] 0
x[19,5,3] 0
x[19,6,0] 0
x[19,6,1] 0
x[19,6,2] 0
x[19,6,3] 0
x[19,7,0] 0
x[19,7,1] 0
x[19,7,2] 0
x[19,7,3] 0
x[20,0,0] 0
x[20,0,1] 0
x[20,0,2] 0
x[20,0,3] 0
x[20,1,0] 0
x[20,1,1] 0
x[20,1,2] 0
x[20,1,3] 0
x[20,2,0] 0
x[20,2,1] 0
x[20,2,2] 0
x[20,2,3] 0
x[20,3,0] 0
x[20,3,1] 0
x[20,3,2] 0
x[20,3,3] 1
x[20,4,0] 0
x[20,4,1] 0
x[20,4,2] 0
x[20,4,3] 0
x[20,5,0] 0
x[20,5,1] 0
x[20,5,2] 0
x[20,5,3] 0
x[20,6,0] 0
x[20,6,1] 0
x[20,6,2] 0
x[20,6,3] 0
x[20,7,0] 0
x[20,7,1] 0
x[20,7,2] 0
x[20,7,3] 0
x[21,0,0] 0
x[21,0,1] 0
x[21,0,2] 0
x[21,0,3] 0
x[21,1,0] 0
x[21,1,1] 0
x[21,1,2] 0
x[21,1,3] 0
x[21,2,0] 0
x[21,2,1] 0
x[21,2,2] 0
x[21,2,3] 0
x[21,3,0] 0
x[21,3,1] 0
x[21,3,2] 0
x[21,3,3] 0
x[21,4,0] 0
x[21,4,1] 0
x[21,4,2] 0
x[21,4,3] 0
x[21,5,0] 0
x[21,5,1] 1
x[21,5,2] 0
x[21,5,3] 0
x[21,6,0] 0
x[21,6,1] 0
x[21,6,2] 0
x[21,6,3] 0
x[21,7,0] 0
x[21,7,1] 0
x[21,7,2] 0
x[21,7,3] 0
x[22,0,0] 0
x[22,0,1] 0
x[22,0,2] 0
x[22,0,3] 0
x[22,1,0] 0
x[22,1,1] 0
x[22,1,2] 0
x[22,1,3] 0
x[22,2,0] 0
x[22,2,1] 0
x[22,2,2] 0
x[22,2,3] 0
x[22,3,0] 0
x[22,3,1] 0
x[22,3,2] 0
x[22,3,3] 0
x[22,4,0] 0
x[22,4,1] 0
x[22,4,2] 1
x[22,4,3] 0
x[22,5,0] 0
x[22,5,1] 0
x[22,5,2] 0
x[22,5,3] 0
x[22,6,0] 0
x[22,6,1] 0
x[22,6,2] 0
x[22,6,3] 0
x[22,7,0] 0
x[22,7,1] 0
x[22,7,2] 0
x[22,7,3] 0
x[23,0,0] 0
x[23,0,1] 0
x[23,0,2] 0
x[23,0,3] 0
x[23,1,0] 0
x[23,1,1] 0
x[23,1,2] 0
x[23,1,3] 0
x[23,2,0] 0
x[23,2,1] 0
x[23,2,2] 0
x[23,2,3] 0
x[23,3,0] 0
x[23,3,1] 0
x[23,3,2] 0
x[23,3,3] 0
x[23,4,0] 0
x[23,4,1] 0
x[23,4,2] 0
x[23,4,3] 0
x[23,5,0] 0
x[23,5,1] 0
x[23,5,2] 1
x[23,5,3] 0
x[23,6,0] 0
x[23,6,1] 0
x[23,6,2] 0
x[23,6,3] 0
x[23,7,0] 0
x[23,7,1] 0
x[23,7,2] 0
x[23,7,3] 0
x[24,0,0] 0
x[24,0,1] 0
x[24,0,2] 0
x[24,0,3] 0
x[24,1,0] 0
x[24,1,1] 0
x[24,1,2] 0
x[24,1,3] 0
x[24,2,0] 0
x[24,2,1] 0
x[24,2,2] 0
x[24,2,3] 0
x[24,3,0] 0
x[24,3,1] 0
x[24,3,2] 0
x[24,3,3] 0
x[24,4,0] 0
x[24,4,1] 0
x[24,4,2] 0
x[24,4,3] 0
x[24,5,0] 0
x[24,5,1] 0
x[24,5,2] 0
x[24,5,3] 0
x[24,6,0] 0
x[24,6,1] 0
x[24,6,2] 1
x[24,6,3] 0
x[24,7,0] 0
x[24,7,1] 0
x[24,7,2] 0
x[24,7,3] 0
x[25,0,0] 0
x[25,0,1] 0
x[25,0,2] 0
x[25,0,3] 0
x[25,1,0] 0
x[25,1,1] 0
x[25,1,2] 0
x[25,1,3] 0
x[25,2,0] 0
x[25,2,1] 0
x[25,2,2] 0
x[25,2,3] 0
x[25,3,0] 0
x[25,3,1] 0
x[25,3,2] 0
x[25,3,3] 0
x[25,4,0] 0
x[25,4,1] 0
x[25,4,2] 0
x[25,4,3] 0
x[25,5,0] 0
x[25,5,1] 0
x[25,5,2] 0
x[25,5,3] 0
x[25,6,0] 0
x[25,6,1] 0
x[25,6,2] 0
x[25,6,3] 0
x[25,7,0] 0
x[25,7,1] 0
x[25,7,2] 0
x[25,7,3] 1
x[26,0,0] 0
x[26,0,1] 0
x[26,0,2] 0
x[26,0,3] 0
x[26,1,0] 0
x[26,1,1] 0
x[26,1,2] 0
x[26,1,3] 0
x[26,2,0] 0
x[26,2,1] 0
x[26,2,2] 0
x[26,2,3] 0
x[26,3,0] 0
x[26,3,1] 0
x[26,3,2] 0
x[26,3,3] 0
x[26,4,0] 0
x[26,4,1] 0
x[26,4,2] 0
x[26,4,3] 0
x[26,5,0] 0
x[26,5,1] 0
x[26,5,2] 0
x[26,5,3] 0
x[26,6,0] 0
x[26,6,1] 0
x[26,6,2] 0
x[26,6,3] 0
x[26,7,0] 0
x[26,7,1] 0
x[26,7,2] 1
x[26,7,3] 0
x[27,0,0] 0
x[27,0,1] 0
x[27,0,2] 0
x[27,0,3] 0
x[27,1,0] 0
x[27,1,1] 0
x[27,1,2] 0
x[27,1,3] 0
x[27,2,0] 0
x[27,2,1] 0
x[27,2,2] 0
x[27,2,3] 0
x[27,3,0] 0
x[27,3,1] 0
x[27,3,2] 0
x[27,3,3] 0
x[27,4,0] 0
x[27,4,1] 0
x[27,4,2] 0
x[27,4,3] 0
x[27,5,0] 0
x[27,5,1] 0
x[27,5,2] 0
x[27,5,3] 0
x[27,6,0] 0
x[27,6,1] 0
x[27,6,2] 0
x[27,6,3] 0
x[27,7,0] 0
x[27,7,1] 1
x[27,7,2] 0
x[27,7,3] 0
x[28,0,0] 0
x[28,0,1] 0
x[28,0,2] 0
x[28,0,3] 0
x[28,1,0] 0
x[28,1,1] 0
x[28,1,2] 0
x[28,1,3] 0
x[28,2,0] 0
x[28,2,1] 0
x[28,2,2] 0
x[28,2,3] 0
x[28,3,0] 0
x[28,3,1] 0
x[28,3,2] 0
x[28,3,3] 0
x[28,4,0] 0
x[28,4,1] 0
x[28,4,2] 0
x[28,4,3] 0
x[28,5,0] 0
x[28,5,1] 0
x[28,5,2] 0
x[28,5,3] 0
x[28,6,0] 0
x[28,6,1] 0
x[28,6,2] 0
x[28,6,3] 0
x[28,7,0] 1
x[28,7,1] 0
x[28,7,2] 0
x[28,7,3] 0
x[29,0,0] 0
x[29,0,1] 0
x[29,0,2] 0
x[29,0,3] 0
x[29,1,0] 0
x[29,1,1] 0
x[29,1,2] 0
x[29,1,3] 0
x[29,2,0] 0
x[29,2,1] 0
x[29,2,2] 0
x[29,2,3] 0
x[29,3,0] 0
x[29,3,1] 0
x[29,3,2] 0
x[29,3,3] 0
x[29,4,0] 0
x[29,4,1] 0
x[29,4,2] 0
x[29,4,3] 0
x[29,5,0] 0
x[29,5,1] 0
x[29,5,2] 0
x[29,5,3] 0
x[29,6,0] 1
x[29,6,1] 0
x[29,6,2] 0
x[29,6,3] 0
x[29,7,0] 0
x[29,7,1] 0
x[29,7,2] 0
x[29,7,3] 0
x[30,0,0] 0
x[30,0,1] 0
x[30,0,2] 0
x[30,0,3] 0
x[30,1,0] 0
x[30,1,1] 0
x[30,1,2] 0
x[30,1,3] 0
x[30,2,0] 0
x[30,2,1] 0
x[30,2,2] 0
x[30,2,3] 0
x[30,3,0] 0
x[30,3,1] 0
x[30,3,2] 0
x[30,3,3] 0
x[30,4,0] 0
x[30,4,1] 0
x[30,4,2] 0
x[30,4,3] 0
x[30,5,0] 0
x[30,5,1] 0
x[30,5,2] 0
x[30,5,3] 0
x[30,6,0] 0
x[30,6,1] 0
x[30,6,2] 0
x[30,6,3] 1
x[30,7,0] 0
x[30,7,1] 0
x[30,7,2] 0
x[30,7,3] 0
x[31,0,0] 0
x[31,0,1] 0
x[31,0,2] 0
x[31,0,3] 0
x[31,1,0] 0
x[31,1,1] 0
x[31,1,2] 0
x[31,1,3] 0
x[31,2,0] 0
x[31,2,1] 0
x[31,2,2] 0
x[31,2,3] 0
x[31,3,0] 0
x[31,3,1] 0
x[31,3,2] 0
x[31,3,3] 0
x[31,4,0] 0
x[31,4,1] 0
x[31,4,2] 0
x[31,4,3] 0
x[31,5,0] 0
x[31,5,1] 0
x[31,5,2] 0
x[31,5,3] 0
x[31,6,0] 0
x[31,6,1] 1
x[31,6,2] 0
x[31,6,3] 0
x[31,7,0] 0
x[31,7,1] 0
x[31,7,2] 0
x[31,7,3] 0
y[0,0,0] 0
y[0,0,1] 0
y[0,0,2] 0
y[0,0,3] 0
y[0,1,0] 0
y[0,1,1] 0
y[0,1,2] 0
y[0,1,3] 1
y[1,0,0] 0
y[1,0,1] 0
y[1,0,2] 0
y[1,0,3] 0
y[1,1,0] 0
y[1,1,1] 1
y[1,1,2] 0
y[1,1,3] 0
y[2,0,0] 0
y[2,0,1] 0
y[2,0,2] 1
y[2,0,3] 0
y[2,1,0] 0
y[2,1,1] 0
y[2,1,2] 0
y[2,1,3] 0
y[3,0,0] 0
y[3,0,1] 0
y[3,0,2] 0
y[3,0,3] 0
y[3,1,0] 0
y[3,1,1] 0
y[3,1,2] 1
y[3,1,3] 0
y[4,0,0] 0
y[4,0,1] 0
y[4,0,2] 0
y[4,0,3] 1
y[4,1,0] 0
y[4,1,1] 0
y[4,1,2] 0
y[4,1,3] 0
y[5,0,0] 0
y[5,0,1] 0
y[5,0,2] 0
y[5,0,3] 0
y[5,1,0] 1
y[5,1,1] 0
y[5,1,2] 0
y[5,1,3] 0
y[6,0,0] 0
y[6,0,1] 1
y[6,0,2] 0
y[6,0,3] 0
y[6,1,0] 0
y[6,1,1] 0
y[6,1,2] 0
y[6,1,3] 0
y[7,0,0] 1
y[7,0,1] 0
y[7,0,2] 0
y[7,0,3] 0
y[7,1,0] 0
y[7,1,1] 0
y[7,1,2] 0
y[7,1,3] 0
w[0,0,0] 0
w[0,0,1] 0
w[0,0,2] 1
w[0,0,3] 0
w[0,1,0] 0
w[0,1,1] 0
w[0,1,2] 0
w[0,1,3] 0
w[0,2,0] 0
w[0,2,1] 0
w[0,2,2] 0
w[0,2,3] 0
w[0,3,0] 0
w[0,3,1] 0
w[0,3,2] 0
w[0,3,3] 0
w[0,4,0] 0
w[0,4,1] 0
w[0,4,2] 0
w[0,4,3] 1
w[0,5,0] 0
w[0,5,1] 0
w[0,5,2] 0
w[0,5,3] 0
w[0,6,0] 0
w[0,6,1] 0
w[0,6,2] 0
w[0,6,3] 1
w[0,7,0] 0
w[0,7,1] 0
w[0,7,2] 0
w[0,7,3] 0
w[1,0,0] 0
w[1,0,1] 0
w[1,0,2] 0
w[1,0,3] 0
w[1,1,0] 1
w[1,1,1] 0
w[1,1,2] 1
w[1,1,3] 0
w[1,2,0] 0
w[1,2,1] 0
w[1,2,2] 0
w[1,2,3] 0
w[1,3,0] 0
w[1,3,1] 0
w[1,3,2] 0
w[1,3,3] 0
w[1,4,0] 0
w[1,4,1] 0
w[1,4,2] 0
w[1,4,3] 0
w[1,5,0] 0
w[1,5,1] 0
w[1,5,2] 0
w[1,5,3] 0
w[1,6,0] 0
w[1,6,1] 1
w[1,6,2] 0
w[1,6,3] 0
w[1,7,0] 0
w[1,7,1] 0
w[1,7,2] 0
w[1,7,3] 0
w[2,0,0] 0
w[2,0,1] 0
w[2,0,2] 0
w[2,0,3] 0
w[2,1,0] 0
w[2,1,1] 0
w[2,1,2] 0
w[2,1,3] 1
w[2,2,0] 0
w[2,2,1] 0
w[2,2,2] 1
w[2,2,3] 0
w[2,3,0] 0
w[2,3,1] 0
w[2,3,2] 0
w[2,3,3] 0
w[2,4,0] 0
w[2,4,1] 0
w[2,4,2] 0
w[2,4,3] 0
w[2,5,0] 0
w[2,5,1] 0
w[2,5,2] 0
w[2,5,3] 0
w[2,6,0] 0
w[2,6,1] 0
w[2,6,2] 0
w[2,6,3] 0
w[2,7,0] 0
w[2,7,1] 0
w[2,7,2] 0
w[2,7,3] 0
w[3,0,0] 0
w[3,0,1] 0
w[3,0,2] 0
w[3,0,3] 0
w[3,1,0] 0
w[3,1,1] 1
w[3,1,2] 0
w[3,1,3] 0
w[3,2,0] 0
w[3,2,1] 0
w[3,2,2] 0
w[3,2,3] 1
w[3,3,0] 0
w[3,3,1] 0
w[3,3,2] 0
w[3,3,3] 0
w[3,4,0] 0
w[3,4,1] 0
w[3,4,2] 0
w[3,4,3] 0
w[3,5,0] 0
w[3,5,1] 0
w[3,5,2] 0
w[3,5,3] 0
w[3,6,0] 0
w[3,6,1] 0
w[3,6,2] 0
w[3,6,3] 0
w[3,7,0] 0
w[3,7,1] 0
w[3,7,2] 0
w[3,7,3] 0
w[4,0,0] 1
w[4,0,1] 0
w[4,0,2] 0
w[4,0,3] 0
w[4,1,0] 0
w[4,1,1] 0
w[4,1,2] 0
w[4,1,3] 0
w[4,2,0] 0
w[4,2,1] 1
w[4,2,2] 0
w[4,2,3] 0
w[4,3,0] 0
w[4,3,1] 0
w[4,3,2] 0
w[4,3,3] 0
w[4,4,0] 0
w[4,4,1] 0
w[4,4,2] 0
w[4,4,3] 0
w[4,5,0] 0
w[4,5,1] 0
w[4,5,2] 0
w[4,5,3] 0
w[4,6,0] 0
w[4,6,1] 0
w[4,6,2] 0
w[4,6,3] 0
w[4,7,0] 0
w[4,7,1] 0
w[4,7,2] 0
w[4,7,3] 0
w[5,0,0] 1
w[5,0,1] 1
w[5,0,2] 1
w[5,0,3] 1
w[5,1,0] 0
w[5,1,1] 0
w[5,1,2] 0
w[5,1,3] 0
w[5,2,0] 0
w[5,2,1] 0
w[5,2,2] 0
w[5,2,3] 0
w[5,3,0] 0
w[5,3,1] 0
w[5,3,2] 0
w[5,3,3] 1
w[5,4,0] 0
w[5,4,1] 0
w[5,4,2] 0
w[5,4,3] 0
w[5,5,0] 0
w[5,5,1] 0
w[5,5,2] 0
w[5,5,3] 0
w[5,6,0] 0
w[5,6,1] 0
w[5,6,2] 0
w[5,6,3] 0
w[5,7,0] 0
w[5,7,1] 0
w[5,7,2] 0
w[5,7,3] 0
w[6,0,0] 0
w[6,0,1] 0
w[6,0,2] 0
w[6,0,3] 0
w[6,1,0] 0
w[6,1,1] 0
w[6,1,2] 0
w[6,1,3] 0
w[6,2,0] 1
w[6,2,1] 0
w[6,2,2] 0
w[6,2,3] 0
w[6,3,0] 0
w[6,3,1] 0
w[6,3,2] 0
w[6,3,3] 0
w[6,4,0] 0
w[6,4,1] 0
w[6,4,2] 0
w[6,4,3] 0
w[6,5,0] 0
w[6,5,1] 1
w[6,5,2] 0
w[6,5,3] 0
w[6,6,0] 0
w[6,6,1] 0
w[6,6,2] 0
w[6,6,3] 0
w[6,7,0] 0
w[6,7,1] 0
w[6,7,2] 0
w[6,7,3] 0
w[7,0,0] 0
w[7,0,1] 0
w[7,0,2] 0
w[7,0,3] 1
w[7,1,0] 0
w[7,1,1] 0
w[7,1,2] 0
w[7,1,3] 0
w[7,2,0] 0
w[7,2,1] 0
w[7,2,2] 0
w[7,2,3] 0
w[7,3,0] 0
w[7,3,1] 0
w[7,3,2] 0
w[7,3,3] 0
w[7,4,0] 0
w[7,4,1] 0
w[7,4,2] 1
w[7,4,3] 0
w[7,5,0] 0
w[7,5,1] 0
w[7,5,2] 0
w[7,5,3] 0
w[7,6,0] 0
w[7,6,1] 0
w[7,6,2] 0
w[7,6,3] 0
w[7,7,0] 0
w[7,7,1] 0
w[7,7,2] 0
w[7,7,3] 0
w[8,0,0] 0
w[8,0,1] 0
w[8,0,2] 0
w[8,0,3] 0
w[8,1,0] 0
w[8,1,1] 0
w[8,1,2] 0
w[8,1,3] 0
w[8,2,0] 0
w[8,2,1] 0
w[8,2,2] 0
w[8,2,3] 0
w[8,3,0] 0
w[8,3,1] 0
w[8,3,2] 0
w[8,3,3] 0
w[8,4,0] 0
w[8,4,1] 0
w[8,4,2] 0
w[8,4,3] 0
w[8,5,0] 0
w[8,5,1] 0
w[8,5,2] 1
w[8,5,3] 1
w[8,6,0] 0
w[8,6,1] 0
w[8,6,2] 0
w[8,6,3] 0
w[8,7,0] 0
w[8,7,1] 0
w[8,7,2] 0
w[8,7,3] 0
w[9,0,0] 0
w[9,0,1] 0
w[9,0,2] 0
w[9,0,3] 0
w[9,1,0] 0
w[9,1,1] 0
w[9,1,2] 0
w[9,1,3] 0
w[9,2,0] 0
w[9,2,1] 0
w[9,2,2] 0
w[9,2,3] 0
w[9,3,0] 0
w[9,3,1] 0
w[9,3,2] 0
w[9,3,3] 0
w[9,4,0] 0
w[9,4,1] 0
w[9,4,2] 0
w[9,4,3] 0
w[9,5,0] 1
w[9,5,1] 0
w[9,5,2] 0
w[9,5,3] 0
w[9,6,0] 0
w[9,6,1] 0
w[9,6,2] 1
w[9,6,3] 0
w[9,7,0] 0
w[9,7,1] 0
w[9,7,2] 0
w[9,7,3] 0
w[10,0,0] 0
w[10,0,1] 0
w[10,0,2] 0
w[10,0,3] 0
w[10,1,0] 0
w[10,1,1] 0
w[10,1,2] 0
w[10,1,3] 0
w[10,2,0] 0
w[10,2,1] 0
w[10,2,2] 0
w[10,2,3] 0
w[10,3,0] 0
w[10,3,1] 0
w[10,3,2] 0
w[10,3,3] 0
w[10,4,0] 0
w[10,4,1] 1
w[10,4,2] 0
w[10,4,3] 0
w[10,5,0] 0
w[10,5,1] 0
w[10,5,2] 0
w[10,5,3] 0
w[10,6,0] 0
w[10,6,1] 0
w[10,6,2] 0
w[10,6,3] 0
w[10,7,0] 0
w[10,7,1] 0
w[10,7,2] 0
w[10,7,3] 1
w[11,0,0] 0
w[11,0,1] 0
w[11,0,2] 0
w[11,0,3] 0
w[11,1,0] 0
w[11,1,1] 0
w[11,1,2] 0
w[11,1,3] 0
w[11,2,0] 0
w[11,2,1] 0
w[11,2,2] 0
w[11,2,3] 0
w[11,3,0] 0
w[11,3,1] 0
w[11,3,2] 0
w[11,3,3] 0
w[11,4,0] 1
w[11,4,1] 0
w[11,4,2] 0
w[11,4,3] 0
w[11,5,0] 0
w[11,5,1] 0
w[11,5,2] 0
w[11,5,3] 0
w[11,6,0] 0
w[11,6,1] 0
w[11,6,2] 0
w[11,6,3] 0
w[11,7,0] 0
w[11,7,1] 0
w[11,7,2] 1
w[11,7,3] 0
w[12,0,0] 0
w[12,0,1] 0
w[12,0,2] 0
w[12,0,3] 0
w[12,1,0] 0
w[12,1,1] 0
w[12,1,2] 0
w[12,1,3] 0
w[12,2,0] 0
w[12,2,1] 0
w[12,2,2] 0
w[12,2,3] 0
w[12,3,0] 0
w[12,3,1] 0
w[12,3,2] 1
w[12,3,3] 0
w[12,4,0] 0
w[12,4,1] 0
w[12,4,2] 0
w[12,4,3] 0
w[12,5,0] 0
w[12,5,1] 0
w[12,5,2] 0
w[12,5,3] 0
w[12,6,0] 0
w[12,6,1] 0
w[12,6,2] 0
w[12,6,3] 0
w[12,7,0] 0
w[12,7,1] 1
w[12,7,2] 0
w[12,7,3] 0
w[13,0,0] 0
w[13,0,1] 0
w[13,0,2] 0
w[13,0,3] 0
w[13,1,0] 0
w[13,1,1] 0
w[13,1,2] 0
w[13,1,3] 0
w[13,2,0] 0
w[13,2,1] 0
w[13,2,2] 0
w[13,2,3] 0
w[13,3,0] 0
w[13,3,1] 1
w[13,3,2] 0
w[13,3,3] 0
w[13,4,0] 0
w[13,4,1] 0
w[13,4,2] 0
w[13,4,3] 0
w[13,5,0] 0
w[13,5,1] 0
w[13,5,2] 0
w[13,5,3] 0
w[13,6,0] 0
w[13,6,1] 0
w[13,6,2] 0
w[13,6,3] 0
w[13,7,0] 1
w[13,7,1] 0
w[13,7,2] 0
w[13,7,3] 0
w[14,0,0] 0
w[14,0,1] 0
w[14,0,2] 0
w[14,0,3] 0
w[14,1,0] 0
w[14,1,1] 0
w[14,1,2] 0
w[14,1,3] 0
w[14,2,0] 0
w[14,2,1] 0
w[14,2,2] 0
w[14,2,3] 0
w[14,3,0] 1
w[14,3,1] 0
w[14,3,2] 0
w[14,3,3] 0
w[14,4,0] 0
w[14,4,1] 0
w[14,4,2] 0
w[14,4,3] 0
w[14,5,0] 0
w[14,5,1] 0
w[14,5,2] 0
w[14,5,3] 0
w[14,6,0] 1
w[14,6,1] 0
w[14,6,2] 0
w[14,6,3] 0
w[14,7,0] 0
w[14,7,1] 0
w[14,7,2] 0
w[14,7,3] 0
w[15,0,0] 0
w[15,0,1] 0
w[15,0,2] 0
w[15,0,3] 0
w[15,1,0] 0
w[15,1,1] 0
w[15,1,2] 0
w[15,1,3] 0
w[15,2,0] 0
w[15,2,1] 0
w[15,2,2] 0
w[15,2,3] 0
w[15,3,0] 0
w[15,3,1] 0
w[15,3,2] 0
w[15,3,3] 0
w[15,4,0] 0
w[15,4,1] 0
w[15,4,2] 0
w[15,4,3] 0
w[15,5,0] 0
w[15,5,1] 0
w[15,5,2] 0
w[15,5,3] 0
w[15,6,0] 0
w[15,6,1] 0
w[15,6,2] 0
w[15,6,3] 0
w[15,7,0] 0
w[15,7,1] 0
w[15,7,2] 0
w[15,7,3] 0
w[16,0,0] 0
w[16,0,1] 0
w[16,0,2] 0
w[16,0,3] 0
w[16,1,0] 0
w[16,1,1] 0
w[16,1,2] 0
w[16,1,3] 0
w[16,2,0] 0
w[16,2,1] 0
w[16,2,2] 0
w[16,2,3] 0
w[16,3,0] 0
w[16,3,1] 0
w[16,3,2] 0
w[16,3,3] 0
w[16,4,0] 0
w[16,4,1] 0
w[16,4,2] 0
w[16,4,3] 0
w[16,5,0] 0
w[16,5,1] 0
w[16,5,2] 0
w[16,5,3] 0
w[16,6,0] 0
w[16,6,1] 0
w[16,6,2] 0
w[16,6,3] 0
w[16,7,0] 0
w[16,7,1] 0
w[16,7,2] 0
w[16,7,3] 0
w[17,0,0] 0
w[17,0,1] 0
w[17,0,2] 0
w[17,0,3] 0
w[17,1,0] 0
w[17,1,1] 0
w[17,1,2] 0
w[17,1,3] 0
w[17,2,0] 0
w[17,2,1] 0
w[17,2,2] 0
w[17,2,3] 0
w[17,3,0] 0
w[17,3,1] 0
w[17,3,2] 0
w[17,3,3] 0
w[17,4,0] 0
w[17,4,1] 0
w[17,4,2] 0
w[17,4,3] 0
w[17,5,0] 0
w[17,5,1] 0
w[17,5,2] 0
w[17,5,3] 0
w[17,6,0] 1
w[17,6,1] 1
w[17,6,2] 1
w[17,6,3] 1
w[17,7,0] 1
w[17,7,1] 1
w[17,7,2] 1
w[17,7,3] 1
w[18,0,0] 0
w[18,0,1] 0
w[18,0,2] 0
w[18,0,3] 0
w[18,1,0] 0
w[18,1,1] 0
w[18,1,2] 0
w[18,1,3] 0
w[18,2,0] 0
w[18,2,1] 0
w[18,2,2] 0
w[18,2,3] 0
w[18,3,0] 1
w[18,3,1] 1
w[18,3,2] 1
w[18,3,3] 1
w[18,4,0] 1
w[18,4,1] 1
w[18,4,2] 1
w[18,4,3] 1
w[18,5,0] 1
w[18,5,1] 1
w[18,5,2] 1
w[18,5,3] 1
w[18,6,0] 0
w[18,6,1] 0
w[18,6,2] 0
w[18,6,3] 0
w[18,7,0] 0
w[18,7,1] 0
w[18,7,2] 0
w[18,7,3] 0
w[19,0,0] 1
w[19,0,1] 1
w[19,0,2] 1
w[19,0,3] 1
w[19,1,0] 1
w[19,1,1] 1
w[19,1,2] 1
w[19,1,3] 1
w[19,2,0] 1
w[19,2,1] 1
w[19,2,2] 1
w[19,2,3] 1
w[19,3,0] 0
w[19,3,1] 0
w[19,3,2] 0
w[19,3,3] 0
w[19,4,0] 0
w[19,4,1] 0
w[19,4,2] 0
w[19,4,3] 0
w[19,5,0] 0
w[19,5,1] 0
w[19,5,2] 0
w[19,5,3] 0
w[19,6,0] 0
w[19,6,1] 0
w[19,6,2] 0
w[19,6,3] 0
w[19,7,0] 0
w[19,7,1] 0
w[19,7,2] 0
w[19,7,3] 0
bb[0] 1
bb[1] 0
bb[2] 0
bb[3] 0
bb[4] 0
bb[5] 1
bb[6] 1
bb[7] 0
z 0
c[0,0] 0
c[0,1] 0
c[0,2] 0
c[0,3] 0
c[0,4] 0
c[0,5] 0
c[0,6] 0
c[0,7] 0
c[1,0] 0
c[1,1] 0
c[1,2] 0
c[1,3] 0
c[1,4] 0
c[1,5] 0
c[1,6] 0
c[1,7] 0
c[2,0] 0
c[2,1] 0
c[2,2] 0
c[2,3] 0
c[2,4] 0
c[2,5] 0
c[2,6] 0
c[2,7] 0
c[3,0] 0
c[3,1] 0
c[3,2] 0
c[3,3] 0
c[3,4] 0
c[3,5] 0
c[3,6] 0
c[3,7] 0
c[4,0] 0
c[4,1] 0
c[4,2] 0
c[4,3] 0
c[4,4] 0
c[4,5] 0
c[4,6] 0
c[4,7] 0
c[5,0] 1
c[5,1] 0
c[5,2] 0
c[5,3] 0
c[5,4] 0
c[5,5] 0
c[5,6] 0
c[5,7] 0
c[6,0] 0
c[6,1] 0
c[6,2] 0
c[6,3] 0
c[6,4] 0
c[6,5] 0
c[6,6] 0
c[6,7] 0
c[7,0] 0
c[7,1] 0
c[7,2] 0
c[7,3] 0
c[7,4] 0
c[7,5] 0
c[7,6] 0
c[7,7] 0
c[8,0] 0
c[8,1] 0
c[8,2] 0
c[8,3] 0
c[8,4] 0
c[8,5] 0
c[8,6] 0
c[8,7] 0
c[9,0] 0
c[9,1] 0
c[9,2] 0
c[9,3] 0
c[9,4] 0
c[9,5] 0
c[9,6] 0
c[9,7] 0
c[10,0] 0
c[10,1] 0
c[10,2] 0
c[10,3] 0
c[10,4] 0
c[10,5] 0
c[10,6] 0
c[10,7] 0
c[11,0] 0
c[11,1] 0
c[11,2] 0
c[11,3] 0
c[11,4] 0
c[11,5] 0
c[11,6] 0
c[11,7] 0
c[12,0] 0
c[12,1] 0
c[12,2] 0
c[12,3] 0
c[12,4] 0
c[12,5] 0
c[12,6] 0
c[12,7] 0
c[13,0] 0
c[13,1] 0
c[13,2] 0
c[13,3] 0
c[13,4] 0
c[13,5] 0
c[13,6] 0
c[13,7] 0
c[14,0] 0
c[14,1] 0
c[14,2] 0
c[14,3] 0
c[14,4] 0
c[14,5] 0
c[14,6] 0
c[14,7] 0
c[15,0] 0
c[15,1] 0
c[15,2] 0
c[15,3] 0
c[15,4] 0
c[15,5] 0
c[15,6] 0
c[15,7] 0
c[16,0] 0
c[16,1] 0
c[16,2] 0
c[16,3] 0
c[16,4] 0
c[16,5] 0
c[16,6] 0
c[16,7] 0
c[17,0] 0
c[17,1] 0
c[17,2] 0
c[17,3] 0
c[17,4] 0
c[17,5] 0
c[17,6] 1
c[17,7] 1
c[18,0] 0
c[18,1] 0
c[18,2] 0
c[18,3] 1
c[18,4] 1
c[18,5] 1
c[18,6] 0
c[18,7] 0
c[19,0] 0
c[19,1] 1
c[19,2] 1
c[19,3] 0
c[19,4] 0
c[19,5] 0
c[19,6] 0
c[19,7] 0
o[0,0] 0
o[0,1] 0
o[0,2] 0
o[0,3] 0
o[0,4] 0
o[0,5] 0
o[0,6] 0
o[0,7] 0
o[1,0] 0
o[1,1] 0
o[1,2] 0
o[1,3] 0
o[1,4] 0
o[1,5] 0
o[1,6] 0
o[1,7] 0
o[2,0] 0
o[2,1] 0
o[2,2] 0
o[2,3] 0
o[2,4] 0
o[2,5] 0
o[2,6] 0
o[2,7] 0
o[3,0] 0
o[3,1] 0
o[3,2] 0
o[3,3] 0
o[3,4] 0
o[3,5] 0
o[3,6] 0
o[3,7] 0
o[4,0] 0
o[4,1] 0
o[4,2] 0
o[4,3] 0
o[4,4] 0
o[4,5] 0
o[4,6] 0
o[4,7] 0
o[5,0] 0
o[5,1] 0
o[5,2] 0
o[5,3] 0
o[5,4] 0
o[5,5] 0
o[5,6] 0
o[5,7] 0
o[6,0] 0
o[6,1] 0
o[6,2] 0
o[6,3] 0
o[6,4] 0
o[6,5] 0
o[6,6] 0
o[6,7] 0
o[7,0] 0
o[7,1] 0
o[7,2] 0
o[7,3] 0
o[7,4] 0
o[7,5] 0
o[7,6] 0
o[7,7] 0
o[8,0] 0
o[8,1] 0
o[8,2] 0
o[8,3] 0
o[8,4] 0
o[8,5] 0
o[8,6] 0
o[8,7] 0
o[9,0] 0
o[9,1] 0
o[9,2] 0
o[9,3] 0
o[9,4] 0
o[9,5] 0
o[9,6] 0
o[9,7] 0
o[10,0] 0
o[10,1] 0
o[10,2] 0
o[10,3] 0
o[10,4] 0
o[10,5] 0
o[10,6] 0
o[10,7] 0
o[11,0] 0
o[11,1] 0
o[11,2] 0
o[11,3] 0
o[11,4] 0
o[11,5] 0
o[11,6] 0
o[11,7] 0
o[12,0] 0
o[12,1] 0
o[12,2] 0
o[12,3] 0
o[12,4] 0
o[12,5] 0
o[12,6] 0
o[12,7] 0
o[13,0] 0
o[13,1] 0
o[13,2] 0
o[13,3] 0
o[13,4] 0
o[13,5] 0
o[13,6] 0
o[13,7] 0
o[14,0] 0
o[14,1] 0
o[14,2] 0
o[14,3] 0
o[14,4] 0
o[14,5] 0
o[14,6] 0
o[14,7] 0
o[15,0] 0
o[15,1] 0
o[15,2] 0
o[15,3] 0
o[15,4] 0
o[15,5] 0
o[15,6] 0
o[15,7] 0
o[16,0] 0
o[16,1] 0
o[16,2] 0
o[16,3] 0
o[16,4] 0
o[16,5] 0
o[16,6] 0
o[16,7] 0
o[17,0] 0
o[17,1] 0
o[17,2] 0
o[17,3] 0
o[17,4] 0
o[17,5] 0
o[17,6] 1
o[17,7] 1
o[18,0] 0
o[18,1] 0
o[18,2] 0
o[18,3] 1
o[18,4] 1
o[18,5] 1
o[18,6] 0
o[18,7] 0
o[19,0] 1
o[19,1] 1
o[19,2] 1
o[19,3] 0
o[19,4] 0
o[19,5] 0
o[19,6] 0
o[19,7] 0
